1000
[100,114,117,118,122,125,132,137,138,139,146,153,157,158,169,178,179,180,181,185,187,202,204,212,217,225,227,229,231,235,236,237,243,247,249,261,262,263,267,268,269,270,281,285,294,299,302,303,311,315,317,319,322,323,325,329,330,336,345,347,348,352,365,370,374,375,378,379,384,388,393,400,413,414,415,416,418,422,428,431,433,442,444,445,448,451,457,471,474,475,479,483,485,486,487,492,496,497,511,522,525,527,544,546,550,551,552,555,559,560,561,565,566,570,579,582,593,595,598,600,601,615,617,620,622,624,627,630,631,639,645,657,660,672,674,676,679,682,687,688,689,693,694,700,706,712,715,717,718,721,732,734,737,740,742,749,754,755,763,764,765,770,771,773,774,779,783,785,791,793,800]
[1,2,1,1,1,1,1,1,2,1,1,1,1,1,1,1,1,1,2,1,2,1,1,2,1,1,2,1,1,1,1,1,1,1,1,1,2,1,1,1,1,1,1,1,1,1,1,1,1,1,1,1,2,1,1,1,1,2,1,1,2,1,1,1,1,1,1,1,2,2,1,2,1,1,1,1,1,1,1,1,1,2,1,1,1,1,1,1,1,1,2,1,1,1,1,1,1,1,1,2,2,1,2,1,1,1,1,1,1,1,1,1,2,1,2,1,1,1,1,1,1,1,1,1,1,2,1,1,1,2,1,1,1,1,1,1,1,1,2,1,1,1,1,1,2,1,2,1,1,1,2,1,1,1,1,1,1,1,1,1,2,2,1,1,1,1,2,1,1,1,1]
